c 1 blocksize
c 2 LZP
c 3 ROLZX
c 4 RANK
c 5 TEXT
c 6 skip
c 7 TPAQ
c 8 BWTS
c 9 LZ
c 10 blocksize_1MB
c 11 MTFT
c 12 transform
c 13 blocksize_1KB
c 14 entropy
c 15 SRT
c 16 X86
c 17 checksum
c 18 jobs_32
c 19 FPAQ
c 20 RLT
c 21 BWT
c 22 jobs_64
c 23 blocksize_1GB
c 24 Root
c 25 jobs_1
c 26 jobs
c 27 TPAQX
c 28 CM
c 29 ZRLT
c 30 Range
c 31 ROLZ
c 32 ANS0
c 33 ANS1
c 34 Huffman
p cnf 34 76
24 0
1 -13 0
1 -10 0
1 -23 0
13 10 23 -1 0
-13 -10 0
-13 -23 0
-10 -23 0
12 -21 0
12 -8 0
12 -9 0
12 -2 0
12 -31 0
12 -3 0
12 -20 0
12 -29 0
12 -11 0
12 -4 0
12 -15 0
12 -5 0
12 -16 0
21 8 9 2 31 3 20 29 11 4 15 5 16 -12 0
14 -34 0
14 -32 0
14 -33 0
14 -30 0
14 -19 0
14 -7 0
14 -27 0
14 -28 0
34 32 33 30 19 7 27 28 -14 0
-34 -32 0
-34 -33 0
-34 -30 0
-34 -19 0
-34 -7 0
-34 -27 0
-34 -28 0
-32 -33 0
-32 -30 0
-32 -19 0
-32 -7 0
-32 -27 0
-32 -28 0
-33 -30 0
-33 -19 0
-33 -7 0
-33 -27 0
-33 -28 0
-30 -19 0
-30 -7 0
-30 -27 0
-30 -28 0
-19 -7 0
-19 -27 0
-19 -28 0
-7 -27 0
-7 -28 0
-27 -28 0
24 -1 0
24 -14 0
24 -12 0
24 -17 0
24 -6 0
24 -26 0
1 -24 0
14 -24 0
12 -24 0
26 -24 0
26 -25 0
26 -18 0
26 -22 0
25 18 22 -26 0
-25 -18 0
-25 -22 0
-18 -22 0
